(set-logic ALL)
(declare-fun var0 () String)
(assert (str.in_re var0 (re.++ (re.union (re.+ (str.to_re "0")) (re.+ (str.to_re "11"))) (re.++ (re.* (re.union (str.to_re "2") (str.to_re "3"))) (re.++ (re.union (re.* (str.to_re "444")) (re.* (str.to_re "5"))) (re.++ (re.union (re.* (str.to_re "66")) (re.* (str.to_re "7"))) (re.++ (re.* (re.* (str.to_re "888"))) (re.++ (re.+ (re.union (str.to_re "999") (str.to_re "aaa"))) (re.++ (re.+ (re.+ (str.to_re "b"))) (re.++ (re.+ (re.* (str.to_re "ccc"))) (re.++ (re.union (re.+ (str.to_re "ddd")) (re.+ (str.to_re "eee"))) (re.++ (re.+ (re.+ (str.to_re "fff"))) (re.++ (re.union (re.+ (str.to_re "g")) (re.+ (str.to_re "h"))) (re.++ (re.union (re.* (str.to_re "iii")) (re.* (str.to_re "j"))) (re.++ (re.union (re.* (str.to_re "kk")) (re.* (str.to_re "ll"))) (re.++ (re.union (re.+ (str.to_re "mmm")) (re.+ (str.to_re "n"))) (re.++ (re.+ (re.+ (str.to_re "ooo"))) (re.++ (re.+ (re.union (str.to_re "p") (str.to_re "qqq"))) (re.++ (re.* (re.* (str.to_re "rr"))) (re.++ (re.+ (re.* (str.to_re "sss"))) (re.++ (re.* (re.* (str.to_re "ttt"))) (re.++ (re.+ (re.+ (str.to_re "u"))) (re.++ (re.* (re.* (str.to_re "vvv"))) (re.++ (re.union (re.union (str.to_re "w") (str.to_re "x")) (re.union (str.to_re "yyy") (str.to_re "zz"))) (re.++ (re.* (re.+ (str.to_re "A"))) (re.++ (re.* (re.union (str.to_re "BB") (str.to_re "C"))) (re.++ (re.* (re.union (str.to_re "D") (str.to_re "EE"))) (re.++ (re.+ (re.union (str.to_re "FF") (str.to_re "G"))) (re.++ (re.union (re.union (str.to_re "HHH") (str.to_re "III")) (re.union (str.to_re "JJ") (str.to_re "KKK"))) (re.++ (re.union (re.+ (str.to_re "LLL")) (re.+ (str.to_re "MM"))) (re.++ (re.+ (re.* (str.to_re "NNN"))) (re.++ (re.+ (re.union (str.to_re "OOO") (str.to_re "P"))) (re.++ (re.union (re.union (str.to_re "QQ") (str.to_re "RRR")) (re.union (str.to_re "S") (str.to_re "T"))) (re.++ (re.* (re.* (str.to_re "UUU"))) (re.++ (re.* (re.+ (str.to_re "VV"))) (re.++ (re.union (re.+ (str.to_re "WW")) (re.+ (str.to_re "X"))) (re.++ (re.+ (re.* (str.to_re "YY"))) (re.++ (re.* (re.* (str.to_re "Z"))) (re.++ (re.* (re.union (str.to_re "!!!") (str.to_re """"))) (re.++ (re.union (re.+ (str.to_re "###")) (re.+ (str.to_re "$"))) (re.++ (re.+ (re.union (str.to_re "%") (str.to_re "&"))) (re.++ (re.* (re.union (str.to_re "'''") (str.to_re "((("))) (re.++ (re.* (re.union (str.to_re "))") (str.to_re "**"))) (re.++ (re.+ (re.* (str.to_re "++"))) (re.++ (re.union (re.+ (str.to_re ",,,")) (re.+ (str.to_re "---"))) (re.++ (re.+ (re.* (str.to_re ".."))) (re.++ (re.* (re.union (str.to_re "//") (str.to_re "::"))) (re.++ (re.* (re.+ (str.to_re ";;"))) (re.++ (re.* (re.+ (str.to_re "<<<"))) (re.++ (re.union (re.+ (str.to_re "=")) (re.+ (str.to_re ">"))) (re.++ (re.+ (re.union (str.to_re "??") (str.to_re "@"))) (re.++ (re.union (re.union (str.to_re "[[") (str.to_re "\\")) (re.union (str.to_re "]") (str.to_re "^^"))) (re.++ (re.+ (re.* (str.to_re "___"))) (re.++ (re.+ (re.* (str.to_re "```"))) (re.++ (re.* (re.* (str.to_re "{{"))) (re.++ (re.+ (re.+ (str.to_re "|"))) (re.++ (re.union (re.* (str.to_re "}}")) (re.* (str.to_re "~~"))) (re.++ (re.union (re.+ (str.to_re "00")) (re.+ (str.to_re "111"))) (re.++ (re.union (re.* (str.to_re "22")) (re.* (str.to_re "333"))) (re.++ (re.+ (re.* (str.to_re "4"))) (re.++ (re.* (re.union (str.to_re "5") (str.to_re "6"))) (re.++ (re.union (re.union (str.to_re "777") (str.to_re "888")) (re.union (str.to_re "9") (str.to_re "aa"))) (re.++ (re.union (re.+ (str.to_re "b")) (re.+ (str.to_re "ccc"))) (re.++ (re.union (re.* (str.to_re "d")) (re.* (str.to_re "eee"))) (re.++ (re.* (re.+ (str.to_re "ff"))) (re.++ (re.* (re.union (str.to_re "ggg") (str.to_re "h"))) (re.++ (re.+ (re.* (str.to_re "iii"))) (re.++ (re.union (re.* (str.to_re "jj")) (re.* (str.to_re "kk"))) (re.++ (re.+ (re.* (str.to_re "l"))) (re.++ (re.union (re.union (str.to_re "mmm") (str.to_re "n")) (re.union (str.to_re "ooo") (str.to_re "pp"))) (re.++ (re.* (re.union (str.to_re "qqq") (str.to_re "rr"))) (re.++ (re.+ (re.+ (str.to_re "ss"))) (re.++ (re.* (re.union (str.to_re "ttt") (str.to_re "u"))) (re.++ (re.+ (re.union (str.to_re "vvv") (str.to_re "www"))) (re.++ (re.union (re.* (str.to_re "xxx")) (re.* (str.to_re "yyy"))) (re.++ (re.union (re.+ (str.to_re "z")) (re.+ (str.to_re "A"))) (re.++ (re.* (re.+ (str.to_re "BBB"))) (re.++ (re.union (re.union (str.to_re "CCC") (str.to_re "DD")) (re.union (str.to_re "EE") (str.to_re "FF"))) (re.++ (re.union (re.union (str.to_re "G") (str.to_re "HH")) (re.union (str.to_re "I") (str.to_re "JJ"))) (re.++ (re.union (re.+ (str.to_re "KKK")) (re.+ (str.to_re "LLL"))) (re.++ (re.* (re.* (str.to_re "MM"))) (re.++ (re.* (re.union (str.to_re "NN") (str.to_re "OOO"))) (re.++ (re.* (re.* (str.to_re "PP"))) (re.++ (re.union (re.+ (str.to_re "QQQ")) (re.+ (str.to_re "R"))) (re.++ (re.+ (re.union (str.to_re "S") (str.to_re "T"))) (re.++ (re.union (re.+ (str.to_re "UU")) (re.+ (str.to_re "V"))) (re.++ (re.+ (re.union (str.to_re "W") (str.to_re "XX"))) (re.++ (re.+ (re.* (str.to_re "YY"))) (re.++ (re.+ (re.* (str.to_re "ZZ"))) (re.++ (re.union (re.union (str.to_re "!") (str.to_re """")) (re.union (str.to_re "###") (str.to_re "$"))) (re.++ (re.+ (re.+ (str.to_re "%%"))) (re.++ (re.union (re.* (str.to_re "&")) (re.* (str.to_re "'"))) (re.++ (re.+ (re.* (str.to_re "((("))) (re.++ (re.* (re.* (str.to_re ")))"))) (re.++ (re.+ (re.union (str.to_re "**") (str.to_re "+"))) (re.++ (re.* (re.+ (str.to_re ",,,"))) (re.++ (re.+ (re.union (str.to_re "--") (str.to_re "."))) (re.++ (re.+ (re.union (str.to_re "/") (str.to_re ":"))) (re.++ (re.+ (re.union (str.to_re ";") (str.to_re "<<<"))) (re.++ (re.* (re.union (str.to_re "==") (str.to_re ">"))) (re.++ (re.+ (re.union (str.to_re "???") (str.to_re "@@"))) (re.++ (re.union (re.union (str.to_re "[") (str.to_re "\\\\")) (re.union (str.to_re "]]") (str.to_re "^^"))) (re.++ (re.* (re.* (str.to_re "___"))) (re.++ (re.* (re.+ (str.to_re "`"))) (re.++ (re.union (re.* (str.to_re "{")) (re.* (str.to_re "||"))) (re.++ (re.+ (re.union (str.to_re "}}") (str.to_re "~~~"))) (re.++ (re.union (re.+ (str.to_re "0")) (re.+ (str.to_re "1"))) (re.++ (re.* (re.+ (str.to_re "22"))) (re.++ (re.+ (re.+ (str.to_re "33"))) (re.++ (re.union (re.+ (str.to_re "4")) (re.+ (str.to_re "555"))) (re.++ (re.* (re.union (str.to_re "66") (str.to_re "777"))) (re.++ (re.* (re.* (str.to_re "888"))) (re.++ (re.+ (re.union (str.to_re "999") (str.to_re "a"))) (re.++ (re.* (re.+ (str.to_re "bb"))) (re.++ (re.* (re.+ (str.to_re "c"))) (re.++ (re.union (re.+ (str.to_re "d")) (re.+ (str.to_re "ee"))) (re.++ (re.* (re.+ (str.to_re "f"))) (re.++ (re.+ (re.+ (str.to_re "gg"))) (re.++ (re.* (re.+ (str.to_re "hhh"))) (re.++ (re.union (re.union (str.to_re "iii") (str.to_re "jjj")) (re.union (str.to_re "kkk") (str.to_re "ll"))) (re.++ (re.* (re.union (str.to_re "mmm") (str.to_re "nnn"))) (re.++ (re.union (re.+ (str.to_re "ooo")) (re.+ (str.to_re "p"))) (re.++ (re.* (re.+ (str.to_re "qq"))) (re.++ (re.union (re.union (str.to_re "r") (str.to_re "sss")) (re.union (str.to_re "tt") (str.to_re "uuu"))) (re.++ (re.* (re.* (str.to_re "vv"))) (re.++ (re.+ (re.union (str.to_re "ww") (str.to_re "xxx"))) (re.++ (re.union (re.* (str.to_re "yyy")) (re.* (str.to_re "zz"))) (re.++ (re.* (re.* (str.to_re "AA"))) (re.++ (re.* (re.+ (str.to_re "B"))) (re.++ (re.* (re.union (str.to_re "CC") (str.to_re "D"))) (re.++ (re.+ (re.+ (str.to_re "EE"))) (re.++ (re.+ (re.+ (str.to_re "FFF"))) (re.++ (re.* (re.* (str.to_re "GGG"))) (re.++ (re.* (re.* (str.to_re "HHH"))) (re.++ (re.+ (re.* (str.to_re "I"))) (re.++ (re.* (re.* (str.to_re "JJ"))) (re.++ (re.* (re.* (str.to_re "K"))) (re.++ (re.+ (re.+ (str.to_re "LL"))) (re.++ (re.+ (re.* (str.to_re "M"))) (re.++ (re.* (re.* (str.to_re "N"))) (re.++ (re.union (re.+ (str.to_re "OO")) (re.+ (str.to_re "PP"))) (re.++ (re.union (re.union (str.to_re "QQQ") (str.to_re "R")) (re.union (str.to_re "S") (str.to_re "TTT"))) (re.++ (re.* (re.union (str.to_re "UUU") (str.to_re "V"))) (re.++ (re.+ (re.union (str.to_re "W") (str.to_re "XXX"))) (re.++ (re.* (re.* (str.to_re "YY"))) (re.++ (re.union (re.+ (str.to_re "ZZ")) (re.+ (str.to_re "!"))) (re.++ (re.+ (re.* (str.to_re """"))) (re.++ (re.+ (re.+ (str.to_re "###"))) (re.++ (re.* (re.+ (str.to_re "$$"))) (re.++ (re.* (re.* (str.to_re "%"))) (re.++ (re.union (re.union (str.to_re "&&") (str.to_re "''")) (re.union (str.to_re "(((") (str.to_re ")))"))) (re.++ (re.* (re.union (str.to_re "***") (str.to_re "+"))) (re.++ (re.union (re.+ (str.to_re ",")) (re.+ (str.to_re "-"))) (re.++ (re.+ (re.+ (str.to_re ".."))) (re.++ (re.union (re.union (str.to_re "///") (str.to_re ":")) (re.union (str.to_re ";") (str.to_re "<<"))) (re.++ (re.+ (re.union (str.to_re "=") (str.to_re ">>>"))) (re.* (re.+ (str.to_re "?")))))))))))))))))))))))))))))))))))))))))))))))))))))))))))))))))))))))))))))))))))))))))))))))))))))))))))))))))))))))))))))))))))))))))))))))))))))))))))))))
(check-sat)